p tw 74 2323
0 1
0 2
0 3
0 4
0 5
0 6
0 7
0 8
0 9
0 10
0 11
0 12
0 13
0 16
0 23
0 26
0 28
0 33
0 34
0 36
0 37
0 40
0 49
0 51
0 53
0 54
0 55
0 56
0 15
0 18
0 20
0 29
0 31
0 35
0 44
0 67
0 68
0 14
0 22
0 39
0 41
0 42
0 45
0 57
0 59
0 61
0 62
0 65
0 72
0 47
0 52
0 64
0 66
0 69
0 21
0 27
0 58
0 71
0 43
0 48
0 50
0 60
0 70
0 32
0 63
0 17
0 19
1 2
1 3
1 4
1 5
1 6
1 7
1 8
1 9
1 10
1 11
1 12
1 13
1 15
1 16
1 17
1 35
1 36
1 42
1 44
1 48
1 56
1 57
1 58
1 59
1 60
1 61
1 21
1 28
1 30
1 39
1 40
1 46
1 63
1 65
1 68
1 69
1 70
1 23
1 37
1 53
1 62
1 64
1 66
1 72
1 19
1 20
1 29
1 32
1 43
1 51
1 55
1 22
1 24
1 25
1 33
1 38
1 50
1 52
1 54
1 71
1 14
1 26
1 73
1 18
1 31
1 34
1 45
1 27
2 3
2 4
2 5
2 6
2 7
2 8
2 9
2 10
2 11
2 12
2 13
2 14
2 19
2 28
2 29
2 30
2 31
2 32
2 33
2 34
2 35
2 36
2 17
2 21
2 39
2 40
2 46
2 58
2 63
2 65
2 68
2 69
2 70
2 15
2 20
2 23
2 26
2 41
2 43
2 54
2 57
2 73
2 25
2 37
2 38
2 44
2 55
2 67
2 18
2 24
2 49
2 52
2 62
2 72
3 4
3 5
3 6
3 7
3 8
3 9
3 10
3 11
3 12
3 13
3 14
3 15
3 16
3 17
3 18
3 19
3 20
3 21
3 22
3 23
3 24
3 25
3 26
3 27
3 28
3 29
3 30
3 31
3 32
3 33
3 34
3 35
3 36
3 37
3 40
3 49
3 51
3 53
3 54
3 55
3 56
3 44
3 67
3 68
3 41
3 43
3 57
3 63
3 73
3 59
3 72
3 38
3 50
3 52
3 64
3 65
3 71
3 42
3 47
3 61
3 66
3 48
3 58
3 69
3 62
3 70
3 39
3 46
4 5
4 6
4 7
4 8
4 9
4 10
4 11
4 12
4 13
4 14
4 15
4 16
4 17
4 18
4 19
4 20
4 21
4 22
4 23
4 24
4 25
4 26
4 27
4 35
4 36
4 42
4 44
4 48
4 56
4 57
4 58
4 59
4 60
4 61
4 28
4 31
4 32
4 39
4 43
4 45
4 49
4 51
4 53
4 66
4 68
4 29
4 30
4 40
4 54
4 70
4 72
4 37
4 52
4 62
4 69
5 6
5 7
5 8
5 9
5 10
5 11
5 12
5 13
5 14
5 19
5 28
5 29
5 30
5 31
5 32
5 33
5 34
5 35
5 36
5 15
5 18
5 20
5 21
5 37
5 38
5 44
5 52
5 62
5 63
5 65
5 66
5 16
5 23
5 39
5 46
5 48
5 53
5 64
5 70
5 72
5 27
5 40
5 47
5 49
5 57
5 69
5 24
5 26
5 54
5 73
5 17
5 22
5 43
5 51
5 56
5 61
5 55
5 67
5 68
6 7
6 8
6 9
6 10
6 11
6 12
6 13
6 16
6 18
6 25
6 29
6 31
6 41
6 49
6 54
6 55
6 59
6 62
6 71
6 23
6 30
6 36
6 37
6 39
6 44
6 46
6 48
6 53
6 64
6 66
6 70
6 72
6 14
6 15
6 19
6 27
6 35
6 40
6 47
6 57
6 65
6 69
6 17
6 28
6 32
6 43
6 45
6 51
6 68
6 20
6 21
6 26
6 63
6 73
6 38
6 50
6 52
6 24
6 42
6 61
6 33
6 67
6 58
6 56
6 22
7 8
7 9
7 10
7 11
7 12
7 13
7 14
7 19
7 28
7 29
7 30
7 31
7 32
7 33
7 34
7 35
7 36
7 16
7 21
7 22
7 23
7 25
7 26
7 27
7 37
7 40
7 46
7 47
7 48
7 49
7 50
7 51
7 52
7 15
7 18
7 20
7 38
7 44
7 62
7 63
7 65
7 66
7 17
7 39
7 58
7 68
7 69
7 70
7 24
7 57
7 59
7 72
7 55
7 43
7 54
7 67
7 53
7 61
7 45
7 64
8 9
8 10
8 11
8 12
8 13
8 16
8 18
8 25
8 29
8 31
8 41
8 49
8 54
8 55
8 59
8 62
8 71
8 15
8 17
8 28
8 32
8 39
8 43
8 45
8 51
8 53
8 66
8 68
8 19
8 20
8 22
8 24
8 33
8 57
8 72
8 21
8 48
8 63
8 27
8 35
8 40
8 47
8 58
8 64
8 67
8 37
8 50
8 56
8 60
8 70
8 34
8 42
8 65
8 73
9 10
9 11
9 12
9 13
9 14
9 15
9 16
9 17
9 18
9 19
9 20
9 21
9 22
9 23
9 24
9 25
9 26
9 27
9 34
9 41
9 46
9 54
9 58
9 59
9 62
9 63
9 64
9 29
9 31
9 35
9 40
9 44
9 67
9 68
9 32
9 43
9 51
9 55
9 65
9 33
9 57
9 72
9 28
9 37
9 38
9 50
9 52
9 71
9 36
9 42
9 47
9 61
9 66
9 39
9 45
9 48
9 53
9 56
9 60
9 70
9 73
9 69
9 49
10 11
10 12
10 13
10 16
10 23
10 26
10 28
10 33
10 34
10 36
10 37
10 40
10 49
10 51
10 53
10 54
10 55
10 56
10 15
10 17
10 35
10 42
10 44
10 48
10 57
10 58
10 59
10 60
10 61
10 18
10 22
10 25
10 41
10 46
10 62
10 63
10 64
10 20
10 29
10 31
10 67
10 68
10 71
10 14
10 19
10 27
10 47
10 65
10 69
10 72
10 32
10 39
10 43
10 45
10 66
10 21
10 24
10 30
10 73
10 38
10 50
10 52
10 70
11 12
11 13
11 17
11 21
11 28
11 30
11 39
11 40
11 46
11 58
11 63
11 65
11 68
11 69
11 70
11 16
11 18
11 25
11 29
11 31
11 41
11 49
11 54
11 55
11 59
11 62
11 71
11 15
11 32
11 43
11 45
11 51
11 53
11 66
11 24
11 33
11 48
11 14
11 27
11 36
11 52
11 67
11 22
11 44
11 56
11 19
11 23
11 35
11 37
11 57
11 60
12 13
12 14
12 15
12 16
12 17
12 18
12 19
12 20
12 21
12 22
12 23
12 24
12 25
12 26
12 27
12 28
12 33
12 34
12 36
12 37
12 40
12 49
12 51
12 53
12 54
12 55
12 56
12 57
12 59
12 72
12 35
12 45
12 48
12 63
12 68
12 32
12 52
12 62
12 64
13 14
13 19
13 28
13 29
13 30
13 31
13 32
13 33
13 34
13 35
13 36
13 16
13 18
13 25
13 41
13 49
13 54
13 55
13 59
13 62
13 71
13 15
13 27
13 40
13 47
13 53
13 57
13 65
13 69
13 72
13 20
13 21
13 43
13 46
13 51
13 68
13 22
13 24
13 39
13 42
13 45
13 61
13 17
13 23
13 63
13 73
13 44
13 56
13 66
13 67
13 52
13 64
14 15
14 16
14 17
14 18
14 19
14 20
14 21
14 22
14 23
14 24
14 25
14 26
14 27
14 28
14 29
14 30
14 31
14 32
14 33
14 34
14 35
14 36
14 37
14 38
14 44
14 52
14 62
14 63
14 65
14 66
14 40
14 47
14 49
14 53
14 57
14 69
14 72
14 41
14 43
14 54
14 68
14 73
14 64
14 39
14 42
14 45
14 59
14 61
14 51
14 55
14 67
15 16
15 17
15 18
15 19
15 20
15 21
15 22
15 23
15 24
15 25
15 26
15 27
15 35
15 36
15 42
15 44
15 48
15 56
15 57
15 58
15 59
15 60
15 61
15 33
15 37
15 38
15 52
15 62
15 63
15 65
15 66
15 29
15 31
15 40
15 67
15 68
15 47
15 49
15 53
15 69
15 72
15 28
15 32
15 39
15 43
15 45
15 51
15 41
15 54
15 73
15 64
15 55
15 71
15 50
15 70
15 34
16 17
16 18
16 19
16 20
16 21
16 22
16 23
16 24
16 25
16 26
16 27
16 28
16 29
16 33
16 34
16 36
16 37
16 38
16 39
16 40
16 41
16 42
16 43
16 44
16 45
16 46
16 47
16 48
16 49
16 50
16 51
16 52
16 53
16 54
16 55
16 56
16 35
16 57
16 58
16 59
16 60
16 61
16 31
16 62
16 71
16 30
16 64
16 66
16 70
16 72
16 65
16 67
16 68
16 32
16 63
16 73
17 18
17 19
17 20
17 21
17 22
17 23
17 24
17 25
17 26
17 27
17 35
17 36
17 42
17 44
17 48
17 56
17 57
17 58
17 59
17 60
17 61
17 34
17 41
17 46
17 54
17 62
17 63
17 64
17 28
17 30
17 39
17 40
17 65
17 68
17 69
17 70
17 31
17 32
17 43
17 45
17 49
17 51
17 53
17 66
17 33
17 37
17 72
17 52
17 55
17 67
17 47
17 73
17 29
18 19
18 20
18 21
18 22
18 23
18 24
18 25
18 26
18 27
18 34
18 41
18 46
18 54
18 58
18 59
18 62
18 63
18 64
18 33
18 35
18 37
18 38
18 44
18 52
18 65
18 66
18 29
18 31
18 40
18 67
18 68
18 49
18 55
18 71
18 48
18 28
18 32
18 39
18 43
18 51
18 53
18 56
18 61
18 50
18 57
18 60
18 70
18 72
18 45
18 69
19 20
19 21
19 22
19 23
19 24
19 25
19 26
19 27
19 28
19 29
19 30
19 31
19 32
19 33
19 34
19 35
19 36
19 37
19 40
19 46
19 47
19 48
19 49
19 50
19 51
19 52
19 53
19 57
19 62
19 65
19 69
19 72
19 43
19 55
19 68
19 59
19 44
19 45
19 54
19 70
19 41
19 60
19 64
20 21
20 22
20 23
20 24
20 25
20 26
20 27
20 28
20 29
20 33
20 34
20 36
20 37
20 38
20 39
20 40
20 41
20 42
20 43
20 44
20 45
20 35
20 52
20 62
20 63
20 65
20 66
20 31
20 67
20 68
20 54
20 57
20 73
20 32
20 46
20 51
20 55
20 59
20 72
20 69
20 70
20 47
21 22
21 23
21 24
21 25
21 26
21 27
21 37
21 40
21 46
21 47
21 48
21 49
21 50
21 51
21 52
21 33
21 35
21 38
21 44
21 62
21 63
21 65
21 66
21 28
21 30
21 39
21 58
21 68
21 69
21 70
21 41
21 43
21 54
21 57
21 73
21 29
21 32
21 55
21 64
21 71
21 72
21 36
21 42
21 61
21 31
21 53
21 67
21 45
21 56
22 23
22 24
22 25
22 26
22 27
22 28
22 29
22 33
22 34
22 36
22 37
22 38
22 39
22 40
22 41
22 42
22 43
22 44
22 45
22 46
22 47
22 48
22 49
22 50
22 51
22 52
22 54
22 58
22 59
22 62
22 63
22 64
22 57
22 72
22 31
22 32
22 53
22 56
22 61
22 65
22 35
22 68
22 66
22 55
23 24
23 25
23 26
23 27
23 37
23 40
23 46
23 47
23 48
23 49
23 50
23 51
23 52
23 28
23 33
23 34
23 36
23 53
23 54
23 55
23 56
23 30
23 39
23 44
23 62
23 64
23 66
23 70
23 72
23 41
23 43
23 57
23 63
23 68
23 73
23 29
23 42
23 61
23 31
23 67
23 69
23 35
23 45
23 65
23 59
23 60
24 25
24 26
24 27
24 33
24 57
24 59
24 72
24 30
24 54
24 62
24 63
24 64
24 66
24 73
24 31
24 48
24 55
24 28
24 32
24 39
24 43
24 51
24 53
24 56
24 61
24 65
24 34
24 35
24 37
24 45
24 68
24 36
24 49
24 52
24 67
24 69
24 29
24 40
24 44
24 70
24 58
25 26
25 27
25 37
25 40
25 46
25 47
25 48
25 49
25 50
25 51
25 52
25 34
25 41
25 54
25 58
25 59
25 62
25 63
25 64
25 29
25 31
25 55
25 71
25 33
25 57
25 72
25 28
25 38
25 44
25 65
25 43
25 67
25 69
25 70
25 35
25 45
25 68
25 36
25 53
25 32
25 39
25 56
25 66
26 27
26 37
26 40
26 46
26 47
26 48
26 49
26 50
26 51
26 52
26 28
26 33
26 34
26 36
26 53
26 54
26 55
26 56
26 41
26 58
26 59
26 62
26 63
26 64
26 43
26 57
26 68
26 73
26 30
26 66
26 72
27 37
27 40
27 46
27 47
27 48
27 49
27 50
27 51
27 52
27 35
27 53
27 57
27 62
27 65
27 69
27 72
27 39
27 58
27 64
27 67
27 71
27 36
27 43
27 55
27 63
27 32
27 45
28 29
28 30
28 31
28 32
28 33
28 34
28 35
28 36
28 37
28 38
28 39
28 40
28 41
28 42
28 43
28 44
28 45
28 49
28 51
28 53
28 54
28 55
28 56
28 46
28 58
28 63
28 65
28 68
28 69
28 70
28 66
28 50
28 52
28 64
28 71
28 61
28 47
28 48
28 67
28 57
28 73
28 72
28 62
28 59
28 60
29 30
29 31
29 32
29 33
29 34
29 35
29 36
29 37
29 38
29 39
29 40
29 41
29 42
29 43
29 44
29 45
29 67
29 68
29 49
29 54
29 55
29 59
29 62
29 71
29 46
29 51
29 65
29 47
29 61
29 64
29 66
29 70
29 72
29 56
29 50
29 53
29 57
29 58
29 73
30 31
30 32
30 33
30 34
30 35
30 36
30 39
30 40
30 46
30 58
30 63
30 65
30 68
30 69
30 70
30 37
30 44
30 48
30 53
30 62
30 64
30 66
30 72
30 54
30 57
30 73
30 43
30 45
31 32
31 33
31 34
31 35
31 36
31 40
31 44
31 67
31 68
31 41
31 49
31 54
31 55
31 59
31 62
31 71
31 39
31 43
31 45
31 51
31 53
31 66
31 48
31 63
31 56
31 61
31 64
31 65
31 37
31 38
31 69
31 70
31 47
31 52
31 57
31 73
32 33
32 34
32 35
32 36
32 39
32 43
32 45
32 49
32 51
32 53
32 66
32 68
32 46
32 55
32 62
32 65
32 56
32 61
32 64
32 37
32 40
32 52
32 69
32 42
32 54
32 59
32 63
32 70
32 72
33 34
33 35
33 36
33 37
33 38
33 39
33 40
33 41
33 42
33 43
33 44
33 45
33 49
33 51
33 53
33 54
33 55
33 56
33 52
33 62
33 63
33 65
33 66
33 57
33 59
33 72
33 48
33 61
33 64
33 67
33 69
33 70
33 47
33 68
33 73
33 58
33 50
34 35
34 36
34 37
34 38
34 39
34 40
34 41
34 42
34 43
34 44
34 45
34 49
34 51
34 53
34 54
34 55
34 56
34 46
34 58
34 59
34 62
34 63
34 64
34 48
34 68
34 72
34 47
34 65
34 73
34 70
34 50
34 57
34 66
34 67
35 36
35 42
35 44
35 48
35 56
35 57
35 58
35 59
35 60
35 61
35 37
35 38
35 52
35 62
35 63
35 65
35 66
35 40
35 67
35 68
35 47
35 49
35 53
35 69
35 72
35 39
35 64
35 71
35 45
35 51
35 43
35 50
35 54
35 70
35 73
35 41
35 55
36 37
36 38
36 39
36 40
36 41
36 42
36 43
36 44
36 45
36 49
36 51
36 53
36 54
36 55
36 56
36 48
36 57
36 58
36 59
36 60
36 61
36 46
36 62
36 64
36 66
36 70
36 72
36 47
36 52
36 63
36 67
36 69
37 38
37 39
37 40
37 41
37 42
37 43
37 44
37 45
37 46
37 47
37 48
37 49
37 50
37 51
37 52
37 53
37 54
37 55
37 56
37 62
37 63
37 65
37 66
37 64
37 70
37 72
37 71
37 67
37 69
37 68
37 57
37 60
37 59
38 39
38 40
38 41
38 42
38 43
38 44
38 45
38 52
38 62
38 63
38 65
38 66
38 50
38 54
38 64
38 71
38 55
38 67
38 69
38 70
38 47
38 48
38 51
38 53
38 58
38 61
38 68
39 40
39 41
39 42
39 43
39 44
39 45
39 46
39 58
39 63
39 65
39 68
39 69
39 70
39 48
39 53
39 62
39 64
39 66
39 72
39 49
39 51
39 56
39 61
39 54
39 57
39 59
39 47
39 67
39 71
39 52
40 41
40 42
40 43
40 44
40 45
40 46
40 47
40 48
40 49
40 50
40 51
40 52
40 53
40 54
40 55
40 56
40 67
40 68
40 58
40 63
40 65
40 69
40 70
40 57
40 62
40 72
40 73
40 64
40 71
40 60
40 59
40 66
41 42
41 43
41 44
41 45
41 46
41 54
41 58
41 59
41 62
41 63
41 64
41 49
41 55
41 71
41 57
41 68
41 73
41 47
41 61
41 66
41 65
41 72
41 48
41 51
41 60
41 70
42 43
42 44
42 45
42 48
42 56
42 57
42 58
42 59
42 60
42 61
42 47
42 64
42 66
42 54
42 62
42 65
42 72
42 63
42 70
43 44
43 45
43 49
43 51
43 53
43 66
43 68
43 54
43 57
43 63
43 73
43 46
43 55
43 62
43 65
43 56
43 61
43 64
43 67
43 69
43 70
43 52
43 48
43 50
43 60
43 72
43 58
44 45
44 48
44 56
44 57
44 58
44 59
44 60
44 61
44 52
44 62
44 63
44 65
44 66
44 67
44 68
44 46
44 53
44 64
44 70
44 72
44 50
44 54
44 71
44 47
44 55
44 69
44 49
44 51
45 49
45 51
45 53
45 66
45 68
45 54
45 57
45 59
45 61
45 62
45 65
45 72
45 48
45 63
45 70
45 52
45 69
45 56
45 67
46 47
46 48
46 49
46 50
46 51
46 52
46 54
46 58
46 59
46 62
46 63
46 64
46 65
46 68
46 69
46 70
46 53
46 66
46 72
46 55
46 56
47 48
47 49
47 50
47 51
47 52
47 53
47 57
47 62
47 65
47 69
47 72
47 61
47 64
47 66
47 58
47 67
47 68
47 55
47 71
47 54
47 63
47 73
48 49
48 50
48 51
48 52
48 56
48 57
48 58
48 59
48 60
48 61
48 53
48 62
48 64
48 66
48 70
48 72
48 55
48 63
48 67
48 68
48 54
49 50
49 51
49 52
49 53
49 54
49 55
49 56
49 59
49 62
49 71
49 57
49 65
49 69
49 72
49 66
49 68
49 63
49 67
49 58
49 70
50 51
50 52
50 54
50 63
50 64
50 65
50 71
50 53
50 58
50 61
50 67
50 68
50 56
50 57
50 60
50 70
50 66
50 73
51 52
51 53
51 54
51 55
51 56
51 66
51 68
51 62
51 65
51 61
51 64
51 58
51 67
51 63
51 72
51 69
51 59
51 57
51 60
51 70
52 62
52 63
52 65
52 66
52 54
52 64
52 71
52 55
52 57
52 61
52 67
52 68
52 69
52 53
52 58
52 70
52 72
53 54
53 55
53 56
53 62
53 64
53 66
53 70
53 72
53 57
53 65
53 69
53 68
53 61
53 58
53 67
53 71
53 63
53 60
53 73
54 55
54 56
54 58
54 59
54 62
54 63
54 64
54 71
54 57
54 68
54 73
54 65
54 66
54 72
54 67
54 69
54 70
54 61
54 60
55 56
55 59
55 62
55 71
55 65
55 68
55 63
55 67
55 69
55 70
55 57
55 61
55 64
55 66
55 72
56 57
56 58
56 59
56 60
56 61
56 64
56 65
56 70
56 62
56 63
56 66
56 68
56 67
56 69
57 58
57 59
57 60
57 61
57 62
57 65
57 69
57 72
57 63
57 68
57 73
57 64
57 66
57 67
57 71
57 70
58 59
58 60
58 61
58 62
58 63
58 64
58 65
58 68
58 69
58 70
58 67
58 71
58 72
58 66
58 73
59 60
59 61
59 62
59 63
59 64
59 71
59 72
59 65
59 70
59 66
59 68
60 61
60 70
60 62
61 64
61 66
61 65
61 62
61 72
61 67
61 68
61 69
62 63
62 64
62 65
62 66
62 71
62 70
62 72
62 69
62 68
62 73
62 67
63 64
63 65
63 66
63 68
63 69
63 70
63 73
63 71
63 72
63 67
64 66
64 70
64 72
64 65
64 71
64 73
64 67
64 68
64 69
65 66
65 68
65 69
65 70
65 72
65 71
65 73
66 70
66 72
66 68
66 73
66 67
66 69
67 68
67 69
67 70
67 71
67 73
68 69
68 70
68 73
68 72
69 70
69 72
70 72
72 73
